p wcnf 129 258 259 
1 -72 66 0 
1 -2 64 0 
1 -21 -10 0 
1 78 15 0 
1 67 -82 0 
1 37 106 0 
1 -93 19 0 
1 14 47 0 
1 -36 29 0 
1 -97 98 0 
1 75 19 0 
1 -39 15 0 
1 56 88 0 
1 -30 54 0 
1 111 -49 0 
1 -50 -33 0 
1 -8 62 0 
1 121 -13 0 
1 7 36 0 
1 17 104 0 
1 115 -35 0 
1 -122 -81 0 
1 41 -18 0 
1 91 -55 0 
1 33 5 0 
1 120 18 0 
1 47 118 0 
1 -116 60 0 
1 102 55 0 
1 -31 71 0 
1 61 -41 0 
1 -111 -21 0 
1 -118 -123 0 
1 -28 -24 0 
1 -86 12 0 
1 -24 13 0 
1 -7 107 0 
1 87 -45 0 
1 -54 106 0 
1 16 -101 0 
1 25 118 0 
1 129 65 0 
1 90 34 0 
1 -17 -8 0 
1 -103 -98 0 
1 59 -97 0 
1 -65 -124 0 
1 76 128 0 
1 -13 2 0 
1 113 69 0 
1 -128 49 0 
1 -14 123 0 
1 65 108 0 
1 83 63 0 
1 73 50 0 
1 -15 -23 0 
1 -14 -34 0 
1 -48 78 0 
1 -124 42 0 
1 -28 44 0 
1 24 -94 0 
1 -24 -10 0 
1 8 -99 0 
1 73 -62 0 
1 19 -23 0 
1 107 -87 0 
1 61 96 0 
1 -48 -79 0 
1 -46 -128 0 
1 103 120 0 
1 -31 11 0 
1 -47 -63 0 
1 -58 -7 0 
1 108 -57 0 
1 -77 -79 0 
1 120 -31 0 
1 -108 19 0 
1 -119 63 0 
1 71 25 0 
1 -115 -95 0 
1 108 78 0 
1 -26 -81 0 
1 -83 58 0 
1 -38 -26 0 
1 81 68 0 
1 92 60 0 
1 10 68 0 
1 -101 -41 0 
1 34 -109 0 
1 123 24 0 
1 90 88 0 
1 112 103 0 
1 -106 24 0 
1 15 -85 0 
1 -26 -51 0 
1 -60 99 0 
1 -72 -54 0 
1 73 68 0 
1 -39 -85 0 
1 79 31 0 
1 54 -57 0 
1 4 96 0 
1 -12 75 0 
1 -65 125 0 
1 -106 60 0 
1 -128 -110 0 
1 -44 84 0 
1 9 -7 0 
1 -113 -107 0 
1 -23 -16 0 
1 -98 68 0 
1 -114 -65 0 
1 -15 -32 0 
1 -5 -3 0 
1 -69 -77 0 
1 126 26 0 
1 -33 -96 0 
1 49 58 0 
1 48 -77 0 
1 -26 128 0 
1 121 91 0 
1 -107 29 0 
1 -108 117 0 
1 -120 102 0 
1 -59 -71 0 
1 -42 -127 0 
1 73 72 0 
1 7 102 0 
1 36 -111 0 
1 125 -104 0 
1 -127 14 0 
1 -97 -50 0 
1 -126 -36 0 
1 87 43 0 
1 96 9 0 
1 33 38 0 
1 31 26 0 
1 -129 27 0 
1 93 -76 0 
1 5 68 0 
1 -72 63 0 
1 56 9 0 
1 105 -47 0 
1 5 -106 0 
1 57 74 0 
1 -57 -98 0 
1 72 94 0 
1 57 -96 0 
1 118 -88 0 
1 100 114 0 
1 95 -56 0 
1 -72 95 0 
1 37 -28 0 
1 -49 18 0 
1 -114 -29 0 
1 -77 -4 0 
1 21 27 0 
1 -24 -48 0 
1 -118 -127 0 
1 -32 -58 0 
1 61 76 0 
1 123 -112 0 
1 -10 -50 0 
1 -104 74 0 
1 -4 96 0 
1 -1 -78 0 
1 20 -43 0 
1 98 -42 0 
1 117 -66 0 
1 96 -114 0 
1 -25 114 0 
1 1 36 0 
1 -11 -16 0 
1 -29 10 0 
1 40 27 0 
1 96 -93 0 
1 68 63 0 
1 127 67 0 
1 85 127 0 
1 95 78 0 
1 97 78 0 
1 23 -71 0 
1 128 -46 0 
1 -98 -88 0 
1 74 26 0 
1 -80 -47 0 
1 121 -87 0 
1 -11 -104 0 
1 -4 -111 0 
1 50 78 0 
1 -28 -53 0 
1 32 61 0 
1 -129 63 0 
1 -76 81 0 
1 -69 -35 0 
1 -116 -36 0 
1 129 127 0 
1 1 96 0 
1 -80 54 0 
1 -99 -127 0 
1 -55 4 0 
1 -37 -36 0 
1 86 -115 0 
1 5 128 0 
1 -112 -87 0 
1 8 74 0 
1 -50 -76 0 
1 -8 90 0 
1 -80 37 0 
1 11 -125 0 
1 4 -2 0 
1 -91 32 0 
1 -119 -61 0 
1 49 57 0 
1 -50 -18 0 
1 -53 91 0 
1 -47 -14 0 
1 -2 94 0 
1 -29 -125 0 
1 -31 -111 0 
1 59 64 0 
1 -87 -79 0 
1 -108 39 0 
1 -52 84 0 
1 109 -13 0 
1 -14 -32 0 
1 -90 -127 0 
1 110 88 0 
1 113 -52 0 
1 103 110 0 
1 -120 -64 0 
1 -58 -46 0 
1 77 -93 0 
1 -26 -15 0 
1 95 67 0 
1 30 77 0 
1 -99 28 0 
1 -101 13 0 
1 -115 -97 0 
1 -58 -30 0 
1 -107 114 0 
1 -6 -47 0 
1 99 -122 0 
1 39 102 0 
1 -49 88 0 
1 -88 83 0 
1 27 -119 0 
1 105 38 0 
1 -74 93 0 
1 30 87 0 
1 -71 -120 0 
1 -41 -8 0 
1 97 46 0 
1 -104 -79 0 
1 -10 16 0 
1 33 21 0 
1 -12 -16 0 
1 -93 110 0 
